&control
    calculation = 'scf',
    verbosity = 'low',
    restart_mode = 'from_scratch',
    prefix = 'silicon',
    tstress = .false.,
    tprnfor = .false.,
    pseudo_dir = '$PSEUDO_DIR/',
    outdir = '$TMP_DIR/'
/
&system
ibrav=0, nat=32, ntyp=1,
ecutwfc=25,
/
&electrons
    diagonalization='david',
    mixing_mode = 'plain',
    mixing_beta = 0.7,
    conv_thr =  1.0d-6,
/
ATOMIC_SPECIES
 C 12.010700 C.UPF
ATOMIC_POSITIONS crystal
 C 0.692627 0.500000 0.666667
 C 0.677964 0.573715 0.833333
 C 0.692627 0.500000 0.333333
 C 0.636208 0.636208 0.666667
 C 0.573715 0.677964 0.833333
 C 0.677964 0.573715 0.166667
 C 0.636208 0.636208 0.333333
 C 0.500000 0.692627 0.666667
 C 0.426285 0.677964 0.833333
 C 0.573715 0.677964 0.166667
 C 0.500000 0.692627 0.333333
 C 0.363792 0.636208 0.666667
 C 0.322036 0.573715 0.833333
 C 0.426285 0.677964 0.166667
 C 0.363792 0.636208 0.333333
 C 0.307373 0.500000 0.666667
 C 0.322036 0.426285 0.833333
 C 0.322036 0.573715 0.166667
 C 0.307373 0.500000 0.333333
 C 0.363792 0.363792 0.666667
 C 0.426285 0.322036 0.833333
 C 0.322036 0.426285 0.166667
 C 0.363792 0.363792 0.333333
 C 0.500000 0.307373 0.666667
 C 0.573715 0.322036 0.833333
 C 0.426285 0.322036 0.166667
 C 0.500000 0.307373 0.333333
 C 0.636208 0.363792 0.666667
 C 0.677964 0.426285 0.833333
 C 0.573715 0.322036 0.166667
 C 0.636208 0.363792 0.333333
 C 0.677964 0.426285 0.166667
K_POINTS gamma
CELL_PARAMETERS bohr
30.739978 0.000000 0.000000
0.000000 30.739978 0.000000
0.000000 0.000000 8.055112
