write_hr        = true
num_wann        =  276
num_bands        =  276
num_iter        = 200

dis_num_iter    = 2000
Begin Projections
Mn:dxy,dxz,dyz,dz2,dx2-y2
Bi:px,py,pz
Te:px,py,pz
End Projections

guiding_centres=true
spinors=true

!dis_win_max       = 13.0d0
dis_froz_max      =  12.8d0
dis_froz_min      =  6.4d0

exclude_bands: 1-480, 757-768


bands_plot       = true
bands_plot_format= xmgrace
bands_num_points: 20
begin kpoint_path
   G 0.0 0.0 0.0 M 0.5 0.0 0.0
   M 0.5 0.0 0.0 K 0.25 0.25 0.0
   K 0.25 0.25 0.0 G 0.0 0.0 0.0
end kpoint_path


begin atoms_cart
bohr
  Mn       0.0000      0.0000      0.0000    
  Mn       0.0000      0.0000     77.3093    
  Mn       4.0948      2.3641     25.7698    
  Mn       4.0948      2.3641    103.0790    
  Mn      -0.0000      4.7282     51.5395    
  Mn      -0.0000      4.7282    128.8488    
  Bi       0.0000      0.0000     32.7490    
  Bi       0.0000      0.0000    110.0583    
  Bi       0.0000      0.0000     44.5603    
  Bi       0.0000      0.0000    121.8695    
  Bi       4.0948      2.3641     58.5188    
  Bi       4.0948      2.3641    135.8280    
  Bi       4.0948      2.3641     70.3300    
  Bi       4.0948      2.3641    147.6393    
  Bi      -0.0000      4.7282      6.9793    
  Bi      -0.0000      4.7282     84.2885    
  Bi      -0.0000      4.7282     18.7905    
  Bi      -0.0000      4.7282     96.0998    
  Te       0.0000      0.0000     10.2776    
  Te       0.0000      0.0000     87.5869    
  Te       0.0000      0.0000     67.0317    
  Te       0.0000      0.0000    144.3409    
  Te       4.0948      2.3641     36.0474    
  Te       4.0948      2.3641    113.3566    
  Te       4.0948      2.3641     15.4922    
  Te       4.0948      2.3641     92.8014    
  Te      -0.0000      4.7282     61.8171    
  Te      -0.0000      4.7282    139.1264    
  Te      -0.0000      4.7282     41.2619    
  Te      -0.0000      4.7282    118.5712    
  Te       0.0000      0.0000     22.7986    
  Te       0.0000      0.0000    100.1079    
  Te       0.0000      0.0000     54.5106    
  Te       0.0000      0.0000    131.8199    
  Te       4.0948      2.3641     48.5684    
  Te       4.0948      2.3641    125.8776    
  Te       4.0948      2.3641      2.9711    
  Te       4.0948      2.3641     80.2804    
  Te      -0.0000      4.7282     74.3381    
  Te      -0.0000      4.7282    151.6474    
  Te      -0.0000      4.7282     28.7409    
  Te      -0.0000      4.7282    106.0502    
end atoms_cart

begin unit_cell_cart
bohr
      8.190       0.000       0.000 
     -4.095       7.092       0.000 
      0.000       0.000     154.619
end_unit_cell_cart

mp_grid : 4 4 1

begin kpoints
    0.0000000000       0.0000000000       0.0000000000
    0.0000000000       0.2500000000       0.0000000000
    0.0000000000       0.5000000000       0.0000000000
   -0.0000000000      -0.2500000000      -0.0000000000
    0.2500000000      -0.0000000000      -0.0000000000
    0.2500000000       0.2500000000       0.0000000000
    0.2500000000      -0.5000000000       0.0000000000
    0.2500000000      -0.2500000000       0.0000000000
   -0.5000000000       0.0000000000       0.0000000000
   -0.5000000000       0.2500000000       0.0000000000
    0.5000000000      -0.5000000000       0.0000000000
    0.5000000000      -0.2500000000       0.0000000000
   -0.2500000000       0.0000000000       0.0000000000
   -0.2500000000       0.2500000000      -0.0000000000
   -0.2500000000       0.5000000000       0.0000000000
   -0.2500000000      -0.2500000000       0.0000000000
end kpoints
